NAME : 10_3_3_1_(09).dat
COMMENT : Henke, Speranza, Wäscher, 2015
TYPE : MCVRP
DIMENSION : 11
EDGE_WEIGHT_TYPE : DISTANCE_MATRIX
CAPACITY : 1000
VEHICLES : 2
PRODUCT TYPES : 3
COMPARTMENTS : 3
NODE_COORD_SECTION
1 50 50
2 16.98 69.9
3 15.38 46.5
4 56.35 7.92
5 33.71 7.16
6 72.16 39.49
7 31.5 49.78
8 6.74 52.47
9 62.58 41.38
10 32.91 38.3
11 54.55 12.59
DEMAND_SECTION
1 0 0 0
2 0 0 154
3 0 144 0
4 0 0 9
5 0 120 0
6 201 0 0
7 190 0 0
8 0 0 102
9 0 134 0
10 143 0 0
11 129 0 0
DEPOT_SECTION
1
EOF